NAME          
ROWS
 N  OBJ
 L  c1
COLUMNS
    MARKER    'MARKER'                 'INTORG'
    x[1]      c1        206
    x[1]      OBJ       -165
    x[2]      c1        761
    x[2]      OBJ       -686
    x[3]      c1        686
    x[3]      OBJ       -634
    x[4]      c1        118
    x[4]      OBJ       -217
    x[5]      c1        436
    x[5]      OBJ       -415
RHS
    rhs       c1        1104
RANGES
BOUNDS
 BV bounds    x[1]
 BV bounds    x[2]
 BV bounds    x[3]
 BV bounds    x[4]
 BV bounds    x[5]
ENDATA
